objective value:                     1.89121381511993
x(0,3,0)                                            1 	(obj:0)
x(1,8,1)                                            1 	(obj:0)
x(2,4,1)                                            1 	(obj:0)
x(3,19,0)                                           1 	(obj:0)
x(4,11,1)                                           1 	(obj:0)
x(8,0,0)                                            1 	(obj:0)
x(8,2,1)                                            1 	(obj:0)
x(9,8,0)                                            1 	(obj:0)
x(11,1,1)                                           1 	(obj:0)
x(19,9,0)                                           1 	(obj:0)
xc(1,11)                                            1 	(obj:0)
xc(4,14)                                            1 	(obj:0)
xc(9,19)                                            1 	(obj:0)
u(0,0)                              0.915150116604311 	(obj:0)
u(2,1)                               1.09987873376734 	(obj:0)
u(3,0)                              0.946262590173211 	(obj:0)
u(4,1)                               1.65368631282793 	(obj:0)
u(8,0)                               0.60944432468891 	(obj:0)
u(8,1)                              0.799374358310141 	(obj:0)
u(10,0)                              1.89121381511993 	(obj:0)
u(10,1)                              1.89121381511993 	(obj:0)
u(11,0)                              1.89121381511993 	(obj:0)
u(11,1)                              1.89121381511993 	(obj:0)
u(12,0)                              1.89121381511993 	(obj:0)
u(12,1)                              1.89121381511993 	(obj:0)
u(13,0)                              1.89121381511993 	(obj:0)
u(13,1)                              1.89121381511993 	(obj:0)
u(14,0)                              1.89121381511993 	(obj:0)
u(14,1)                              1.89121381511993 	(obj:0)
u(15,0)                              1.89121381511993 	(obj:0)
u(15,1)                              1.89121381511993 	(obj:0)
u(16,0)                              1.89121381511993 	(obj:0)
u(16,1)                              1.89121381511993 	(obj:0)
u(17,0)                              1.89121381511993 	(obj:0)
u(17,1)                              1.89121381511993 	(obj:0)
u(18,0)                              1.89121381511993 	(obj:0)
u(18,1)                              1.89121381511993 	(obj:0)
u(19,0)                              1.89121381511993 	(obj:0)
u(19,1)                              1.89121381511993 	(obj:0)
f(0,3,0)                                            1 	(obj:0)
f(0,3,1)                                            1 	(obj:0)
f(0,3,2)                                            1 	(obj:0)
f(0,3,4)                                            1 	(obj:0)
f(1,8,1)                                            1 	(obj:0)
f(1,8,2)                                            1 	(obj:0)
f(1,8,4)                                            1 	(obj:0)
f(2,4,2)                                            1 	(obj:0)
f(3,19,0)                                           1 	(obj:0)
f(3,19,1)                                           1 	(obj:0)
f(3,19,2)                                           1 	(obj:0)
f(3,19,3)                                           1 	(obj:0)
f(3,19,4)                                           1 	(obj:0)
f(4,11,2)                                           1 	(obj:0)
f(4,11,4)                                           1 	(obj:0)
f(8,0,1)                                            1 	(obj:0)
f(8,0,2)                                            1 	(obj:0)
f(8,0,4)                                            1 	(obj:0)
f(11,1,2)                                           1 	(obj:0)
f(11,1,4)                                           1 	(obj:0)
f(19,9,0)                                           1 	(obj:0)
f(19,9,1)                                           1 	(obj:0)
f(19,9,2)                                           1 	(obj:0)
f(19,9,3)                                           1 	(obj:0)
f(19,9,4)                                           1 	(obj:0)
z_r(0,)                              1.89121381511993 	(obj:0)
z_r(1,)                              1.89121381511993 	(obj:0)
z                                    1.89121381511993 	(obj:1)
